p cnf 346 1172
c p weight -137 1 0
c p weight 137 -1 0
c p weight 141 6.12323399573676603586882014729198302312846062338790031898128063403419218957424163818359375E-17 0
c p weight -141 1 0
c p weight 142 1 0
c p weight -142 1 0
c p weight -139 1 0
c p weight 139 -1 0
c p weight -143 1 0
c p weight 143 -1 0
c p weight -145 1 0
c p weight 145 -1 0
c p weight -148 1 0
c p weight 148 -1 0
c p weight -151 1 0
c p weight 151 -1 0
c p weight -154 1 0
c p weight 154 -1 0
c p weight -157 1 0
c p weight 157 -1 0
c p weight -160 1 0
c p weight 160 -1 0
c p weight -163 1 0
c p weight 163 -1 0
c p weight -166 1 0
c p weight 166 -1 0
c p weight -169 1 0
c p weight 169 -1 0
c p weight -172 1 0
c p weight 172 -1 0
c p weight -175 1 0
c p weight 175 -1 0
c p weight -178 1 0
c p weight 178 -1 0
c p weight -181 1 0
c p weight 181 -1 0
c p weight -184 1 0
c p weight 184 -1 0
c p weight -187 1 0
c p weight 187 -1 0
c p weight -190 1 0
c p weight 190 -1 0
c p weight -193 1 0
c p weight 193 -1 0
c p weight -196 1 0
c p weight 196 -1 0
c p weight -199 1 0
c p weight 199 -1 0
c p weight -202 1 0
c p weight 202 -1 0
c p weight -205 1 0
c p weight 205 -1 0
c p weight -208 1 0
c p weight 208 -1 0
c p weight -211 1 0
c p weight 211 -1 0
c p weight -214 1 0
c p weight 214 -1 0
c p weight -217 1 0
c p weight 217 -1 0
c p weight -220 1 0
c p weight 220 -1 0
c p weight -223 1 0
c p weight 223 -1 0
c p weight -226 1 0
c p weight 226 -1 0
c p weight -229 1 0
c p weight 229 -1 0
c p weight -232 1 0
c p weight 232 -1 0
c p weight -235 1 0
c p weight 235 -1 0
c p weight -238 1 0
c p weight 238 -1 0
c p weight -241 1 0
c p weight 241 -1 0
c p weight -244 1 0
c p weight 244 -1 0
c p weight -247 1 0
c p weight 247 -1 0
c p weight -250 1 0
c p weight 250 -1 0
c p weight -253 1 0
c p weight 253 -1 0
c p weight -256 1 0
c p weight 256 -1 0
c p weight -259 1 0
c p weight 259 -1 0
c p weight -262 1 0
c p weight 262 -1 0
c p weight -265 1 0
c p weight 265 -1 0
c p weight -268 1 0
c p weight 268 -1 0
c p weight -271 1 0
c p weight 271 -1 0
c p weight -274 1 0
c p weight 274 -1 0
c p weight -277 1 0
c p weight 277 -1 0
c p weight -280 1 0
c p weight 280 -1 0
c p weight -283 1 0
c p weight 283 -1 0
c p weight -286 1 0
c p weight 286 -1 0
c p weight -289 1 0
c p weight 289 -1 0
c p weight -292 1 0
c p weight 292 -1 0
c p weight -295 1 0
c p weight 295 -1 0
c p weight -298 1 0
c p weight 298 -1 0
c p weight -301 1 0
c p weight 301 -1 0
c p weight -304 1 0
c p weight 304 -1 0
c p weight -307 1 0
c p weight 307 -1 0
c p weight -310 1 0
c p weight 310 -1 0
c p weight -313 1 0
c p weight 313 -1 0
c p weight -316 1 0
c p weight 316 -1 0
c p weight -319 1 0
c p weight 319 -1 0
c p weight -322 1 0
c p weight 322 -1 0
c p weight -325 1 0
c p weight 325 -1 0
c p weight -328 1 0
c p weight 328 -1 0
c p weight -331 1 0
c p weight 331 -1 0
c p weight -334 1 0
c p weight 334 -1 0
c p weight -337 1 0
c p weight 337 -1 0
c p weight -340 1 0
c p weight 340 -1 0
c p weight -343 1 0
c p weight 343 -1 0
c p weight 346 0.5 0
c p weight -346 1 0
346 0
-135 0
-133 0
-131 0
-129 0
-127 0
-125 0
-123 0
-121 0
-119 0
-117 0
-115 0
-113 0
-111 0
-109 0
-107 0
-105 0
-103 0
-101 0
-99 0
-97 0
-95 0
-93 0
-91 0
-89 0
-87 0
-85 0
-83 0
-81 0
-79 0
-77 0
-75 0
-73 0
-71 0
-69 0
-67 0
-65 0
-63 0
-61 0
-59 0
-57 0
-55 0
-53 0
-51 0
-49 0
-47 0
-45 0
-43 0
-41 0
-39 0
-37 0
-35 0
-33 0
-31 0
-29 0
-27 0
-25 0
-23 0
-21 0
-19 0
-17 0
-15 0
-13 0
-11 0
-9 0
-7 0
-5 0
-3 0
-1 0
-137 135 0
-137 136 0
137 -135 -136 0
138 135 -136 0
138 -135 136 0
-138 135 136 0
-138 -135 -136 0
-139 140 0
-139 138 0
-139 -135 0
139 -140 135 -138 0
140 -135 138 0
-140 135 138 0
-141 138 0
140 -141 -135 0
-140 -141 135 0
140 141 135 -138 0
-140 141 -135 -138 0
-142 138 0
140 -142 135 0
-140 -142 -135 0
140 142 -135 -138 0
-140 142 135 -138 0
-143 140 0
-143 138 0
143 -140 -138 0
144 140 -138 0
144 -140 138 0
-144 140 138 0
-144 -140 -138 0
-145 140 0
-145 134 0
-145 133 -144 0
-145 -133 144 0
145 -140 133 144 -134 0
145 -140 -133 -144 -134 0
147 140 -133 0
147 -140 133 0
-147 140 133 0
-147 -140 -133 0
146 144 -134 0
146 -144 134 0
-146 144 134 0
-146 -144 -134 0
-148 147 0
-148 132 0
-148 131 -134 0
-148 -131 134 0
148 -147 131 134 -132 0
148 -147 -131 -134 -132 0
150 147 -131 0
150 -147 131 0
-150 147 131 0
-150 -147 -131 0
149 134 -132 0
149 -134 132 0
-149 134 132 0
-149 -134 -132 0
-151 150 0
-151 130 0
-151 129 -132 0
-151 -129 132 0
151 -150 129 132 -130 0
151 -150 -129 -132 -130 0
153 150 -129 0
153 -150 129 0
-153 150 129 0
-153 -150 -129 0
152 132 -130 0
152 -132 130 0
-152 132 130 0
-152 -132 -130 0
-154 153 0
-154 128 0
-154 127 -130 0
-154 -127 130 0
154 -153 127 130 -128 0
154 -153 -127 -130 -128 0
156 153 -127 0
156 -153 127 0
-156 153 127 0
-156 -153 -127 0
155 130 -128 0
155 -130 128 0
-155 130 128 0
-155 -130 -128 0
-157 156 0
-157 126 0
-157 125 -128 0
-157 -125 128 0
157 -156 125 128 -126 0
157 -156 -125 -128 -126 0
159 156 -125 0
159 -156 125 0
-159 156 125 0
-159 -156 -125 0
158 128 -126 0
158 -128 126 0
-158 128 126 0
-158 -128 -126 0
-160 159 0
-160 124 0
-160 123 -126 0
-160 -123 126 0
160 -159 123 126 -124 0
160 -159 -123 -126 -124 0
162 159 -123 0
162 -159 123 0
-162 159 123 0
-162 -159 -123 0
161 126 -124 0
161 -126 124 0
-161 126 124 0
-161 -126 -124 0
-163 162 0
-163 122 0
-163 121 -124 0
-163 -121 124 0
163 -162 121 124 -122 0
163 -162 -121 -124 -122 0
165 162 -121 0
165 -162 121 0
-165 162 121 0
-165 -162 -121 0
164 124 -122 0
164 -124 122 0
-164 124 122 0
-164 -124 -122 0
-166 165 0
-166 120 0
-166 119 -122 0
-166 -119 122 0
166 -165 119 122 -120 0
166 -165 -119 -122 -120 0
168 165 -119 0
168 -165 119 0
-168 165 119 0
-168 -165 -119 0
167 122 -120 0
167 -122 120 0
-167 122 120 0
-167 -122 -120 0
-169 168 0
-169 118 0
-169 117 -120 0
-169 -117 120 0
169 -168 117 120 -118 0
169 -168 -117 -120 -118 0
171 168 -117 0
171 -168 117 0
-171 168 117 0
-171 -168 -117 0
170 120 -118 0
170 -120 118 0
-170 120 118 0
-170 -120 -118 0
-172 171 0
-172 116 0
-172 115 -118 0
-172 -115 118 0
172 -171 115 118 -116 0
172 -171 -115 -118 -116 0
174 171 -115 0
174 -171 115 0
-174 171 115 0
-174 -171 -115 0
173 118 -116 0
173 -118 116 0
-173 118 116 0
-173 -118 -116 0
-175 174 0
-175 114 0
-175 113 -116 0
-175 -113 116 0
175 -174 113 116 -114 0
175 -174 -113 -116 -114 0
177 174 -113 0
177 -174 113 0
-177 174 113 0
-177 -174 -113 0
176 116 -114 0
176 -116 114 0
-176 116 114 0
-176 -116 -114 0
-178 177 0
-178 112 0
-178 111 -114 0
-178 -111 114 0
178 -177 111 114 -112 0
178 -177 -111 -114 -112 0
180 177 -111 0
180 -177 111 0
-180 177 111 0
-180 -177 -111 0
179 114 -112 0
179 -114 112 0
-179 114 112 0
-179 -114 -112 0
-181 180 0
-181 110 0
-181 109 -112 0
-181 -109 112 0
181 -180 109 112 -110 0
181 -180 -109 -112 -110 0
183 180 -109 0
183 -180 109 0
-183 180 109 0
-183 -180 -109 0
182 112 -110 0
182 -112 110 0
-182 112 110 0
-182 -112 -110 0
-184 183 0
-184 108 0
-184 107 -110 0
-184 -107 110 0
184 -183 107 110 -108 0
184 -183 -107 -110 -108 0
186 183 -107 0
186 -183 107 0
-186 183 107 0
-186 -183 -107 0
185 110 -108 0
185 -110 108 0
-185 110 108 0
-185 -110 -108 0
-187 186 0
-187 106 0
-187 105 -108 0
-187 -105 108 0
187 -186 105 108 -106 0
187 -186 -105 -108 -106 0
189 186 -105 0
189 -186 105 0
-189 186 105 0
-189 -186 -105 0
188 108 -106 0
188 -108 106 0
-188 108 106 0
-188 -108 -106 0
-190 189 0
-190 104 0
-190 103 -106 0
-190 -103 106 0
190 -189 103 106 -104 0
190 -189 -103 -106 -104 0
192 189 -103 0
192 -189 103 0
-192 189 103 0
-192 -189 -103 0
191 106 -104 0
191 -106 104 0
-191 106 104 0
-191 -106 -104 0
-193 192 0
-193 102 0
-193 101 -104 0
-193 -101 104 0
193 -192 101 104 -102 0
193 -192 -101 -104 -102 0
195 192 -101 0
195 -192 101 0
-195 192 101 0
-195 -192 -101 0
194 104 -102 0
194 -104 102 0
-194 104 102 0
-194 -104 -102 0
-196 195 0
-196 100 0
-196 99 -102 0
-196 -99 102 0
196 -195 99 102 -100 0
196 -195 -99 -102 -100 0
198 195 -99 0
198 -195 99 0
-198 195 99 0
-198 -195 -99 0
197 102 -100 0
197 -102 100 0
-197 102 100 0
-197 -102 -100 0
-199 198 0
-199 98 0
-199 97 -100 0
-199 -97 100 0
199 -198 97 100 -98 0
199 -198 -97 -100 -98 0
201 198 -97 0
201 -198 97 0
-201 198 97 0
-201 -198 -97 0
200 100 -98 0
200 -100 98 0
-200 100 98 0
-200 -100 -98 0
-202 201 0
-202 96 0
-202 95 -98 0
-202 -95 98 0
202 -201 95 98 -96 0
202 -201 -95 -98 -96 0
204 201 -95 0
204 -201 95 0
-204 201 95 0
-204 -201 -95 0
203 98 -96 0
203 -98 96 0
-203 98 96 0
-203 -98 -96 0
-205 204 0
-205 94 0
-205 93 -96 0
-205 -93 96 0
205 -204 93 96 -94 0
205 -204 -93 -96 -94 0
207 204 -93 0
207 -204 93 0
-207 204 93 0
-207 -204 -93 0
206 96 -94 0
206 -96 94 0
-206 96 94 0
-206 -96 -94 0
-208 207 0
-208 92 0
-208 91 -94 0
-208 -91 94 0
208 -207 91 94 -92 0
208 -207 -91 -94 -92 0
210 207 -91 0
210 -207 91 0
-210 207 91 0
-210 -207 -91 0
209 94 -92 0
209 -94 92 0
-209 94 92 0
-209 -94 -92 0
-211 210 0
-211 90 0
-211 89 -92 0
-211 -89 92 0
211 -210 89 92 -90 0
211 -210 -89 -92 -90 0
213 210 -89 0
213 -210 89 0
-213 210 89 0
-213 -210 -89 0
212 92 -90 0
212 -92 90 0
-212 92 90 0
-212 -92 -90 0
-214 213 0
-214 88 0
-214 87 -90 0
-214 -87 90 0
214 -213 87 90 -88 0
214 -213 -87 -90 -88 0
216 213 -87 0
216 -213 87 0
-216 213 87 0
-216 -213 -87 0
215 90 -88 0
215 -90 88 0
-215 90 88 0
-215 -90 -88 0
-217 216 0
-217 86 0
-217 85 -88 0
-217 -85 88 0
217 -216 85 88 -86 0
217 -216 -85 -88 -86 0
219 216 -85 0
219 -216 85 0
-219 216 85 0
-219 -216 -85 0
218 88 -86 0
218 -88 86 0
-218 88 86 0
-218 -88 -86 0
-220 219 0
-220 84 0
-220 83 -86 0
-220 -83 86 0
220 -219 83 86 -84 0
220 -219 -83 -86 -84 0
222 219 -83 0
222 -219 83 0
-222 219 83 0
-222 -219 -83 0
221 86 -84 0
221 -86 84 0
-221 86 84 0
-221 -86 -84 0
-223 222 0
-223 82 0
-223 81 -84 0
-223 -81 84 0
223 -222 81 84 -82 0
223 -222 -81 -84 -82 0
225 222 -81 0
225 -222 81 0
-225 222 81 0
-225 -222 -81 0
224 84 -82 0
224 -84 82 0
-224 84 82 0
-224 -84 -82 0
-226 225 0
-226 80 0
-226 79 -82 0
-226 -79 82 0
226 -225 79 82 -80 0
226 -225 -79 -82 -80 0
228 225 -79 0
228 -225 79 0
-228 225 79 0
-228 -225 -79 0
227 82 -80 0
227 -82 80 0
-227 82 80 0
-227 -82 -80 0
-229 228 0
-229 78 0
-229 77 -80 0
-229 -77 80 0
229 -228 77 80 -78 0
229 -228 -77 -80 -78 0
231 228 -77 0
231 -228 77 0
-231 228 77 0
-231 -228 -77 0
230 80 -78 0
230 -80 78 0
-230 80 78 0
-230 -80 -78 0
-232 231 0
-232 76 0
-232 75 -78 0
-232 -75 78 0
232 -231 75 78 -76 0
232 -231 -75 -78 -76 0
234 231 -75 0
234 -231 75 0
-234 231 75 0
-234 -231 -75 0
233 78 -76 0
233 -78 76 0
-233 78 76 0
-233 -78 -76 0
-235 234 0
-235 74 0
-235 73 -76 0
-235 -73 76 0
235 -234 73 76 -74 0
235 -234 -73 -76 -74 0
237 234 -73 0
237 -234 73 0
-237 234 73 0
-237 -234 -73 0
236 76 -74 0
236 -76 74 0
-236 76 74 0
-236 -76 -74 0
-238 237 0
-238 72 0
-238 71 -74 0
-238 -71 74 0
238 -237 71 74 -72 0
238 -237 -71 -74 -72 0
240 237 -71 0
240 -237 71 0
-240 237 71 0
-240 -237 -71 0
239 74 -72 0
239 -74 72 0
-239 74 72 0
-239 -74 -72 0
-241 240 0
-241 70 0
-241 69 -72 0
-241 -69 72 0
241 -240 69 72 -70 0
241 -240 -69 -72 -70 0
243 240 -69 0
243 -240 69 0
-243 240 69 0
-243 -240 -69 0
242 72 -70 0
242 -72 70 0
-242 72 70 0
-242 -72 -70 0
-244 243 0
-244 68 0
-244 67 -70 0
-244 -67 70 0
244 -243 67 70 -68 0
244 -243 -67 -70 -68 0
246 243 -67 0
246 -243 67 0
-246 243 67 0
-246 -243 -67 0
245 70 -68 0
245 -70 68 0
-245 70 68 0
-245 -70 -68 0
-247 246 0
-247 66 0
-247 65 -68 0
-247 -65 68 0
247 -246 65 68 -66 0
247 -246 -65 -68 -66 0
249 246 -65 0
249 -246 65 0
-249 246 65 0
-249 -246 -65 0
248 68 -66 0
248 -68 66 0
-248 68 66 0
-248 -68 -66 0
-250 249 0
-250 64 0
-250 63 -66 0
-250 -63 66 0
250 -249 63 66 -64 0
250 -249 -63 -66 -64 0
252 249 -63 0
252 -249 63 0
-252 249 63 0
-252 -249 -63 0
251 66 -64 0
251 -66 64 0
-251 66 64 0
-251 -66 -64 0
-253 252 0
-253 62 0
-253 61 -64 0
-253 -61 64 0
253 -252 61 64 -62 0
253 -252 -61 -64 -62 0
255 252 -61 0
255 -252 61 0
-255 252 61 0
-255 -252 -61 0
254 64 -62 0
254 -64 62 0
-254 64 62 0
-254 -64 -62 0
-256 255 0
-256 60 0
-256 59 -62 0
-256 -59 62 0
256 -255 59 62 -60 0
256 -255 -59 -62 -60 0
258 255 -59 0
258 -255 59 0
-258 255 59 0
-258 -255 -59 0
257 62 -60 0
257 -62 60 0
-257 62 60 0
-257 -62 -60 0
-259 258 0
-259 58 0
-259 57 -60 0
-259 -57 60 0
259 -258 57 60 -58 0
259 -258 -57 -60 -58 0
261 258 -57 0
261 -258 57 0
-261 258 57 0
-261 -258 -57 0
260 60 -58 0
260 -60 58 0
-260 60 58 0
-260 -60 -58 0
-262 261 0
-262 56 0
-262 55 -58 0
-262 -55 58 0
262 -261 55 58 -56 0
262 -261 -55 -58 -56 0
264 261 -55 0
264 -261 55 0
-264 261 55 0
-264 -261 -55 0
263 58 -56 0
263 -58 56 0
-263 58 56 0
-263 -58 -56 0
-265 264 0
-265 54 0
-265 53 -56 0
-265 -53 56 0
265 -264 53 56 -54 0
265 -264 -53 -56 -54 0
267 264 -53 0
267 -264 53 0
-267 264 53 0
-267 -264 -53 0
266 56 -54 0
266 -56 54 0
-266 56 54 0
-266 -56 -54 0
-268 267 0
-268 52 0
-268 51 -54 0
-268 -51 54 0
268 -267 51 54 -52 0
268 -267 -51 -54 -52 0
270 267 -51 0
270 -267 51 0
-270 267 51 0
-270 -267 -51 0
269 54 -52 0
269 -54 52 0
-269 54 52 0
-269 -54 -52 0
-271 270 0
-271 50 0
-271 49 -52 0
-271 -49 52 0
271 -270 49 52 -50 0
271 -270 -49 -52 -50 0
273 270 -49 0
273 -270 49 0
-273 270 49 0
-273 -270 -49 0
272 52 -50 0
272 -52 50 0
-272 52 50 0
-272 -52 -50 0
-274 273 0
-274 48 0
-274 47 -50 0
-274 -47 50 0
274 -273 47 50 -48 0
274 -273 -47 -50 -48 0
276 273 -47 0
276 -273 47 0
-276 273 47 0
-276 -273 -47 0
275 50 -48 0
275 -50 48 0
-275 50 48 0
-275 -50 -48 0
-277 276 0
-277 46 0
-277 45 -48 0
-277 -45 48 0
277 -276 45 48 -46 0
277 -276 -45 -48 -46 0
279 276 -45 0
279 -276 45 0
-279 276 45 0
-279 -276 -45 0
278 48 -46 0
278 -48 46 0
-278 48 46 0
-278 -48 -46 0
-280 279 0
-280 44 0
-280 43 -46 0
-280 -43 46 0
280 -279 43 46 -44 0
280 -279 -43 -46 -44 0
282 279 -43 0
282 -279 43 0
-282 279 43 0
-282 -279 -43 0
281 46 -44 0
281 -46 44 0
-281 46 44 0
-281 -46 -44 0
-283 282 0
-283 42 0
-283 41 -44 0
-283 -41 44 0
283 -282 41 44 -42 0
283 -282 -41 -44 -42 0
285 282 -41 0
285 -282 41 0
-285 282 41 0
-285 -282 -41 0
284 44 -42 0
284 -44 42 0
-284 44 42 0
-284 -44 -42 0
-286 285 0
-286 40 0
-286 39 -42 0
-286 -39 42 0
286 -285 39 42 -40 0
286 -285 -39 -42 -40 0
288 285 -39 0
288 -285 39 0
-288 285 39 0
-288 -285 -39 0
287 42 -40 0
287 -42 40 0
-287 42 40 0
-287 -42 -40 0
-289 288 0
-289 38 0
-289 37 -40 0
-289 -37 40 0
289 -288 37 40 -38 0
289 -288 -37 -40 -38 0
291 288 -37 0
291 -288 37 0
-291 288 37 0
-291 -288 -37 0
290 40 -38 0
290 -40 38 0
-290 40 38 0
-290 -40 -38 0
-292 291 0
-292 36 0
-292 35 -38 0
-292 -35 38 0
292 -291 35 38 -36 0
292 -291 -35 -38 -36 0
294 291 -35 0
294 -291 35 0
-294 291 35 0
-294 -291 -35 0
293 38 -36 0
293 -38 36 0
-293 38 36 0
-293 -38 -36 0
-295 294 0
-295 34 0
-295 33 -36 0
-295 -33 36 0
295 -294 33 36 -34 0
295 -294 -33 -36 -34 0
297 294 -33 0
297 -294 33 0
-297 294 33 0
-297 -294 -33 0
296 36 -34 0
296 -36 34 0
-296 36 34 0
-296 -36 -34 0
-298 297 0
-298 32 0
-298 31 -34 0
-298 -31 34 0
298 -297 31 34 -32 0
298 -297 -31 -34 -32 0
300 297 -31 0
300 -297 31 0
-300 297 31 0
-300 -297 -31 0
299 34 -32 0
299 -34 32 0
-299 34 32 0
-299 -34 -32 0
-301 300 0
-301 30 0
-301 29 -32 0
-301 -29 32 0
301 -300 29 32 -30 0
301 -300 -29 -32 -30 0
303 300 -29 0
303 -300 29 0
-303 300 29 0
-303 -300 -29 0
302 32 -30 0
302 -32 30 0
-302 32 30 0
-302 -32 -30 0
-304 303 0
-304 28 0
-304 27 -30 0
-304 -27 30 0
304 -303 27 30 -28 0
304 -303 -27 -30 -28 0
306 303 -27 0
306 -303 27 0
-306 303 27 0
-306 -303 -27 0
305 30 -28 0
305 -30 28 0
-305 30 28 0
-305 -30 -28 0
-307 306 0
-307 26 0
-307 25 -28 0
-307 -25 28 0
307 -306 25 28 -26 0
307 -306 -25 -28 -26 0
309 306 -25 0
309 -306 25 0
-309 306 25 0
-309 -306 -25 0
308 28 -26 0
308 -28 26 0
-308 28 26 0
-308 -28 -26 0
-310 309 0
-310 24 0
-310 23 -26 0
-310 -23 26 0
310 -309 23 26 -24 0
310 -309 -23 -26 -24 0
312 309 -23 0
312 -309 23 0
-312 309 23 0
-312 -309 -23 0
311 26 -24 0
311 -26 24 0
-311 26 24 0
-311 -26 -24 0
-313 312 0
-313 22 0
-313 21 -24 0
-313 -21 24 0
313 -312 21 24 -22 0
313 -312 -21 -24 -22 0
315 312 -21 0
315 -312 21 0
-315 312 21 0
-315 -312 -21 0
314 24 -22 0
314 -24 22 0
-314 24 22 0
-314 -24 -22 0
-316 315 0
-316 20 0
-316 19 -22 0
-316 -19 22 0
316 -315 19 22 -20 0
316 -315 -19 -22 -20 0
318 315 -19 0
318 -315 19 0
-318 315 19 0
-318 -315 -19 0
317 22 -20 0
317 -22 20 0
-317 22 20 0
-317 -22 -20 0
-319 318 0
-319 18 0
-319 17 -20 0
-319 -17 20 0
319 -318 17 20 -18 0
319 -318 -17 -20 -18 0
321 318 -17 0
321 -318 17 0
-321 318 17 0
-321 -318 -17 0
320 20 -18 0
320 -20 18 0
-320 20 18 0
-320 -20 -18 0
-322 321 0
-322 16 0
-322 15 -18 0
-322 -15 18 0
322 -321 15 18 -16 0
322 -321 -15 -18 -16 0
324 321 -15 0
324 -321 15 0
-324 321 15 0
-324 -321 -15 0
323 18 -16 0
323 -18 16 0
-323 18 16 0
-323 -18 -16 0
-325 324 0
-325 14 0
-325 13 -16 0
-325 -13 16 0
325 -324 13 16 -14 0
325 -324 -13 -16 -14 0
327 324 -13 0
327 -324 13 0
-327 324 13 0
-327 -324 -13 0
326 16 -14 0
326 -16 14 0
-326 16 14 0
-326 -16 -14 0
-328 327 0
-328 12 0
-328 11 -14 0
-328 -11 14 0
328 -327 11 14 -12 0
328 -327 -11 -14 -12 0
330 327 -11 0
330 -327 11 0
-330 327 11 0
-330 -327 -11 0
329 14 -12 0
329 -14 12 0
-329 14 12 0
-329 -14 -12 0
-331 330 0
-331 10 0
-331 9 -12 0
-331 -9 12 0
331 -330 9 12 -10 0
331 -330 -9 -12 -10 0
333 330 -9 0
333 -330 9 0
-333 330 9 0
-333 -330 -9 0
332 12 -10 0
332 -12 10 0
-332 12 10 0
-332 -12 -10 0
-334 333 0
-334 8 0
-334 7 -10 0
-334 -7 10 0
334 -333 7 10 -8 0
334 -333 -7 -10 -8 0
336 333 -7 0
336 -333 7 0
-336 333 7 0
-336 -333 -7 0
335 10 -8 0
335 -10 8 0
-335 10 8 0
-335 -10 -8 0
-337 336 0
-337 6 0
-337 5 -8 0
-337 -5 8 0
337 -336 5 8 -6 0
337 -336 -5 -8 -6 0
339 336 -5 0
339 -336 5 0
-339 336 5 0
-339 -336 -5 0
338 8 -6 0
338 -8 6 0
-338 8 6 0
-338 -8 -6 0
-340 339 0
-340 4 0
-340 3 -6 0
-340 -3 6 0
340 -339 3 6 -4 0
340 -339 -3 -6 -4 0
342 339 -3 0
342 -339 3 0
-342 339 3 0
-342 -339 -3 0
341 6 -4 0
341 -6 4 0
-341 6 4 0
-341 -6 -4 0
-343 342 0
-343 2 0
-343 1 -4 0
-343 -1 4 0
343 -342 1 4 -2 0
343 -342 -1 -4 -2 0
345 342 -1 0
345 -342 1 0
-345 342 1 0
-345 -342 -1 0
344 4 -2 0
344 -4 2 0
-344 4 2 0
-344 -4 -2 0
-345 0
-342 0
-344 0
-339 0
-341 0
-336 0
-338 0
-333 0
-335 0
-330 0
-332 0
-327 0
-329 0
-324 0
-326 0
-321 0
-323 0
-318 0
-320 0
-315 0
-317 0
-312 0
-314 0
-309 0
-311 0
-306 0
-308 0
-303 0
-305 0
-300 0
-302 0
-297 0
-299 0
-294 0
-296 0
-291 0
-293 0
-288 0
-290 0
-285 0
-287 0
-282 0
-284 0
-279 0
-281 0
-276 0
-278 0
-273 0
-275 0
-270 0
-272 0
-267 0
-269 0
-264 0
-266 0
-261 0
-263 0
-258 0
-260 0
-255 0
-257 0
-252 0
-254 0
-249 0
-251 0
-246 0
-248 0
-243 0
-245 0
-240 0
-242 0
-237 0
-239 0
-234 0
-236 0
-231 0
-233 0
-228 0
-230 0
-225 0
-227 0
-222 0
-224 0
-219 0
-221 0
-216 0
-218 0
-213 0
-215 0
-210 0
-212 0
-207 0
-209 0
-204 0
-206 0
-201 0
-203 0
-198 0
-200 0
-195 0
-197 0
-192 0
-194 0
-189 0
-191 0
-186 0
-188 0
-183 0
-185 0
-180 0
-182 0
-177 0
-179 0
-174 0
-176 0
-171 0
-173 0
-168 0
-170 0
-165 0
-167 0
-162 0
-164 0
-159 0
-161 0
-156 0
-158 0
-153 0
-155 0
-150 0
-152 0
-147 0
-149 0
-140 0
-146 0
